NAME: PointSet_Angle_5_10
TYPE: TSP
COMMENT: Points chosen discrete uniformly at random out of ${0, \ldots, 500}^2$.
DIMENSION: 5
EDGE_WEIGHT_TYPE: EUC_2D
NODE_COORD_SECTION
1 7 322
2 257 188
3 279 446
4 122 244
5 155 194
EOF
